data/solutions/recovery/wellformed/moderate/flexible/wellformed_moderate_instance89/31.sol
Elapsed time: 26.11
Upper bound: 7244.0
Planning weighted value: 456963.0
C[0]=7244.0
C[1]=7239.0
C[2]=7223.0
C[3]=7221.0
C[4]=7220.0
C[5]=7216.0
y[0]=3
y[1]=5
y[2]=3
y[3]=4
y[4]=0
y[5]=1
y[6]=0
y[7]=4
y[8]=1
y[9]=1
y[10]=2
y[11]=3
y[12]=2
y[13]=2
y[14]=0
y[15]=5
y[16]=0
y[17]=4
y[18]=4
y[19]=0
y[20]=3
y[21]=1
y[22]=2
y[23]=4
y[24]=3
y[25]=1
y[26]=2
y[27]=4
y[28]=5
y[29]=2
y[30]=5
y[31]=0
y[32]=2
y[33]=0
y[34]=5
y[35]=3
y[36]=3
y[37]=2
y[38]=1
y[39]=1
y[40]=4
y[41]=5
