data/solutions/recovery/wellformed/moderate/flexible/wellformed_moderate_instance89/31.log

Log started (V12.6.3.0) Fri Apr 20 19:30:20 2018

New value for default parallel thread count: 1

Problem '/tmp/tmpTLI8Xb.pyomo.lp' read.
Read time = 0.00 sec. (0.13 ticks)

Problem name         : /tmp/tmpTLI8Xb.pyomo.lp
Objective sense      : Minimize
Variables            :     260  [Nneg: 1,  Binary: 252,  General Integer: 7]
Objective nonzeros   :       1
Linear constraints   :      97  [Less: 48,  Equal: 49]
  Nonzeros           :    8917
  RHS nonzeros       :      85

Variables            : Min LB: 0.000000         Max UB: 1.000000       
Objective nonzeros   : Min   : 1.000000         Max   : 1.000000       
Linear constraints   :
  Nonzeros           : Min   : 1.000000         Max   : 1980.000       
  RHS nonzeros       : Min   : 1.000000         Max   : 5.000000       
Tried aggregator 2 times.
MIP Presolve eliminated 42 rows and 6 columns.
Aggregator did 7 substitutions.
Reduced MIP has 48 rows, 247 columns, and 693 nonzeros.
Reduced MIP has 246 binaries, 1 generals, 0 SOSs, and 0 indicators.
Presolve time = 0.00 sec. (2.20 ticks)
Found incumbent of value 43363.000000 after 0.00 sec. (2.69 ticks)
Probing time = 0.00 sec. (0.26 ticks)
Cover probing fixed 0 vars, tightened 4 bounds.
Tried aggregator 1 time.
Reduced MIP has 48 rows, 247 columns, and 693 nonzeros.
Reduced MIP has 246 binaries, 1 generals, 0 SOSs, and 0 indicators.
Presolve time = 0.00 sec. (0.41 ticks)
Probing time = 0.00 sec. (0.18 ticks)
Clique table members: 41.
MIP emphasis: balance optimality and feasibility.
MIP search method: dynamic search.
Parallel mode: none, using 1 thread.
Root relaxation solution time = 0.00 sec. (0.18 ticks)

        Nodes                                         Cuts/
   Node  Left     Objective  IInf  Best Integer    Best Bound    ItCnt     Gap

*     0+    0                        43363.0000     1980.0000            95.43%
      0     0     7227.1667     9    43363.0000     7227.1667        6   83.33%
*     0+    0                         7964.0000     7227.1667             9.25%
      0     0     7228.0000    13     7964.0000      Fract: 6       29    9.24%
*     0+    0                         7808.0000     7228.0000             7.43%
      0     0     7228.0000    16     7808.0000       Cuts: 9       43    7.43%
*     0+    0                         7648.0000     7228.0000             5.49%
      0     0     7228.0000    13     7648.0000       Cuts: 9       70    5.49%
*     0+    0                         7589.0000     7228.0000             4.76%
      0     0     7228.0000    12     7589.0000    MIRcuts: 6       86    4.76%
*     0+    0                         7457.0000     7228.0000             3.07%
*     0+    0                         7443.0000     7228.0000             2.89%
      0     2     7228.0000     6     7443.0000     7228.0000       86    2.89%
Elapsed time = 0.03 sec. (21.37 ticks, tree = 0.01 MB, solutions = 7)
*    60+   38                         7392.0000     7228.0000             2.22%
*   240+  171                         7347.0000     7228.0000             1.62%
*   340+  219                         7330.0000     7228.0000             1.39%
*   340+  195                         7288.0000     7228.0000             0.82%
*  1554+  490                         7272.0000     7228.0000             0.61%
   1654   468     7228.0000    10     7272.0000     7228.0000     8666    0.61%
   1655   469     7228.0000    10     7272.0000     7228.0000     8666    0.61%
   1656   470     7228.0000    10     7272.0000     7228.0000     8668    0.61%
   1657   470     7228.0000    10     7272.0000     7228.0000     8670    0.61%
   1658   471     7228.0000    10     7272.0000     7228.0000     8672    0.61%
   1659   472     7228.0000    10     7272.0000     7228.0000     8674    0.61%
   1660   473     7228.0000    10     7272.0000     7228.0000     8676    0.61%
   1661   474     7228.0000    10     7272.0000     7228.0000     8678    0.61%
   1662   474     7228.0000    10     7272.0000     7228.0000     8681    0.61%
*  1954+  309                         7259.0000     7228.0000             0.43%
   2554   420     7228.0000    12     7259.0000     7228.0000    12136    0.43%
Elapsed time = 0.94 sec. (1032.25 ticks, tree = 0.12 MB, solutions = 13)
   6468  1618     7228.0000    14     7259.0000     7228.0000    56972    0.43%
   6469  1619     7228.0000    24     7259.0000     7228.0000    56985    0.43%
   6470  1620     7228.0000    18     7259.0000     7228.0000    56987    0.43%
   6471  1619        cutoff           7259.0000     7228.0000    57003    0.43%
   6472  1620     7228.0000    19     7259.0000     7228.0000    57009    0.43%
   6473  1621     7228.0000    18     7259.0000     7228.0000    57011    0.43%
   6474  1622     7228.0000    19     7259.0000     7228.0000    57013    0.43%
   6475  1623     7228.0000    17     7259.0000     7228.0000    57083    0.43%
   6476  1624     7228.0000    14     7259.0000     7228.0000    57086    0.43%
   6477  1625     7228.9745    18     7259.0000     7228.0000    57122    0.43%
Elapsed time = 1.72 sec. (1988.24 ticks, tree = 0.48 MB, solutions = 13)
   8314  2313     7242.0893    37     7259.0000     7228.0000   102040    0.43%
   8315  2314     7243.3109    30     7259.0000     7228.0000   102044    0.43%
   8316  2313        cutoff           7259.0000     7228.0000   102051    0.43%
   8317  2314     7243.4979    29     7259.0000     7228.0000   102052    0.43%
   8318  2313        cutoff           7259.0000     7228.0000   102059    0.43%
   8319  2312        cutoff           7259.0000     7228.0000   102061    0.43%
   8320  2311        cutoff           7259.0000     7228.0000   102090    0.43%
   8321  2310        cutoff           7259.0000     7228.0000   102114    0.43%
   8322  2309        cutoff           7259.0000     7228.0000   102128    0.43%
   8323  2308        cutoff           7259.0000     7228.0000   102151    0.43%
Elapsed time = 2.41 sec. (2944.03 ticks, tree = 0.72 MB, solutions = 13)
   9666  2879     7228.0000    33     7259.0000     7228.0000   144515    0.43%
   9667  2880     7228.0000    29     7259.0000     7228.0000   144530    0.43%
   9668  2881     7228.0000    29     7259.0000     7228.0000   144532    0.43%
   9669  2880    infeasible           7259.0000     7228.0000   144591    0.43%
   9670  2881     7228.0000    29     7259.0000     7228.0000   144597    0.43%
   9671  2882     7228.0000    28     7259.0000     7228.0000   144742    0.43%
   9672  2883     7228.0000    22     7259.0000     7228.0000   144788    0.43%
   9673  2884     7228.0000    22     7259.0000     7228.0000   144802    0.43%
   9674  2885     7253.0000    12     7259.0000     7228.0000   144867    0.43%
   9675  2884        cutoff           7259.0000     7228.0000   144953    0.43%
Elapsed time = 3.09 sec. (3906.65 ticks, tree = 0.87 MB, solutions = 13)
  10597  3286        cutoff           7259.0000     7228.0000   180278    0.43%
  10598  3287     7228.0000    30     7259.0000     7228.0000   180347    0.43%
  10599  3288     7228.0000    31     7259.0000     7228.0000   180373    0.43%
  10600  3289     7228.0000    24     7259.0000     7228.0000   180379    0.43%
  10601  3290     7228.0000    25     7259.0000     7228.0000   180389    0.43%
  10602  3291     7230.5716    38     7259.0000     7228.0000   180488    0.43%
  10603  3292     7233.5984    31     7259.0000     7228.0000   180521    0.43%
  10604  3293     7234.1453    29     7259.0000     7228.0000   180526    0.43%
  10605  3294     7235.2123    24     7259.0000     7228.0000   180534    0.43%
  10606  3295     7236.1244    25     7259.0000     7228.0000   180551    0.43%
Elapsed time = 3.74 sec. (4874.05 ticks, tree = 1.01 MB, solutions = 13)
  11355  3673     7228.0000    28     7259.0000     7228.0000   205333    0.43%
  11356  3674     7228.0000    33     7259.0000     7228.0000   205381    0.43%
  11357  3675     7228.0000    36     7259.0000     7228.0000   205430    0.43%
  11358  3676     7235.5716    45     7259.0000     7228.0000   205555    0.43%
  11359  3677     7228.0000    42     7259.0000     7228.0000   205639    0.43%
  11360  3678     7228.0000    40     7259.0000     7228.0000   205763    0.43%
  11361  3677        cutoff           7259.0000     7228.0000   205822    0.43%
  11362  3678     7228.0000    39     7259.0000     7228.0000   205823    0.43%
  11363  3679     7228.0000    42     7259.0000     7228.0000   205974    0.43%
  11364  3680     7228.0000    38     7259.0000     7228.0000   205978    0.43%
Elapsed time = 4.50 sec. (5842.51 ticks, tree = 1.65 MB, solutions = 13)
  12126  4001     7241.8284    31     7259.0000     7228.0000   239949    0.43%
  12127  4002     7241.9849    38     7259.0000     7228.0000   239970    0.43%
  12128  4001        cutoff           7259.0000     7228.0000   239998    0.43%
  12129  4001     7253.3681    37     7259.0000     7228.0000   240042    0.43%
  12130  4002     7253.6424    28     7259.0000     7228.0000   240067    0.43%
  12131  4003     7253.9548    25     7259.0000     7228.0000   240074    0.43%
  12132  4004     7254.1038    23     7259.0000     7228.0000   240080    0.43%
  12133  4003        cutoff           7259.0000     7228.0000   240084    0.43%
  12134  4002        cutoff           7259.0000     7228.0000   240089    0.43%
  12135  4001        cutoff           7259.0000     7228.0000   240397    0.43%
Elapsed time = 5.14 sec. (6811.11 ticks, tree = 1.89 MB, solutions = 13)
  12802  4206     7230.4800    40     7259.0000     7228.0000   274145    0.43%
  12803  4207     7230.5091    40     7259.0000     7228.0000   274150    0.43%
  12804  4208     7230.5515    36     7259.0000     7228.0000   274164    0.43%
  12805  4209     7232.9315    37     7259.0000     7228.0000   274209    0.43%
  12806  4210     7233.0831    36     7259.0000     7228.0000   274215    0.43%
  12807  4209        cutoff           7259.0000     7228.0000   274222    0.43%
  12808  4210     7233.0913    32     7259.0000     7228.0000   274223    0.43%
  12809  4211     7242.5201    28     7259.0000     7228.0000   274242    0.43%
  12810  4210        cutoff           7259.0000     7228.0000   274244    0.43%
  12811  4209        cutoff           7259.0000     7228.0000   274251    0.43%
Elapsed time = 5.78 sec. (7776.72 ticks, tree = 2.11 MB, solutions = 13)
* 13367  4227      integral     0     7253.0000     7228.0000   298088    0.34%
  13478  4213        cutoff           7253.0000     7228.0000   305454    0.34%
  13479  4212        cutoff           7253.0000     7228.0000   305502    0.34%
  13480  4211        cutoff           7253.0000     7228.0000   305714    0.34%
  13481  4210        cutoff           7253.0000     7228.0000   305758    0.34%
  13482  4211     7238.0163    37     7253.0000     7228.0000   305924    0.34%
  13483  4212     7240.6801    36     7253.0000     7228.0000   305962    0.34%
  13484  4213     7241.0026    39     7253.0000     7228.0000   305969    0.34%
  13485  4214     7241.0963    36     7253.0000     7228.0000   305976    0.34%
  13486  4215     7244.3443    36     7253.0000     7228.0000   306012    0.34%
Elapsed time = 6.42 sec. (8747.98 ticks, tree = 2.15 MB, solutions = 14)
  13995  4273     7246.9982    42     7253.0000     7228.0000   338707    0.34%
  13996  4274     7248.1371    45     7253.0000     7228.0000   338727    0.34%
  13997  4275     7248.6426    51     7253.0000     7228.0000   338750    0.34%
  13998  4274        cutoff           7253.0000     7228.0000   338757    0.34%
  13999  4273        cutoff           7253.0000     7228.0000   338759    0.34%
  14000  4272        cutoff           7253.0000     7228.0000   338960    0.34%
  14001  4271        cutoff           7253.0000     7228.0000   339042    0.34%
  14002  4270        cutoff           7253.0000     7228.0000   339146    0.34%
  14003  4271     7243.9325    43     7253.0000     7228.0000   339371    0.34%
  15906  4888     7230.5507    45     7253.0000     7228.0000   438516    0.34%
Elapsed time = 8.94 sec. (12562.68 ticks, tree = 2.65 MB, solutions = 14)
  18928  6444     7228.0000    30     7253.0000     7228.0000   559355    0.34%
  18929  6445     7228.0000    27     7253.0000     7228.0000   559408    0.34%
  18930  6446     7228.0000    27     7253.0000     7228.0000   559469    0.34%
  18931  6447     7228.0000    26     7253.0000     7228.0000   559476    0.34%
  18932  6448     7228.0000    28     7253.0000     7228.0000   559497    0.34%
  18933  6449     7228.0000    24     7253.0000     7228.0000   559500    0.34%
  18934  6450     7228.0000    29     7253.0000     7228.0000   559535    0.34%
  18935  6451     7228.0000    38     7253.0000     7228.0000   559601    0.34%
  18936  6452     7228.0000    36     7253.0000     7228.0000   559607    0.34%
  18937  6453     7228.0000    29     7253.0000     7228.0000   559626    0.34%
Elapsed time = 11.52 sec. (16386.06 ticks, tree = 3.31 MB, solutions = 14)
  21821  7847     7228.0000    46     7253.0000     7228.0000   680177    0.34%
  21822  7848     7228.0000    46     7253.0000     7228.0000   680220    0.34%
  21823  7847        cutoff           7253.0000     7228.0000   680311    0.34%
  21824  7848     7228.0000    44     7253.0000     7228.0000   680312    0.34%
  21825  7849     7228.0000    46     7253.0000     7228.0000   680546    0.34%
  21826  7848        cutoff           7253.0000     7228.0000   680666    0.34%
  21827  7849     7228.0000    36     7253.0000     7228.0000   680696    0.34%
  21828  7850     7228.0000    57     7253.0000     7228.0000   680863    0.34%
  21829  7851     7239.8367    41     7253.0000     7228.0000   681027    0.34%
  21830  7852     7228.0000    47     7253.0000     7228.0000   681233    0.34%
Elapsed time = 14.07 sec. (20234.85 ticks, tree = 4.95 MB, solutions = 14)
  24597  9310     7247.4680    44     7253.0000     7228.0000   800798    0.34%
  24598  9309        cutoff           7253.0000     7228.0000   800800    0.34%
  24599  9308        cutoff           7253.0000     7228.0000   800967    0.34%
  24600  9309     7251.6710    38     7253.0000     7228.0000   801179    0.34%
  24601  9309     7251.6727    38     7253.0000     7228.0000   801182    0.34%
  24602  9308        cutoff           7253.0000     7228.0000   801185    0.34%
  24603  9309     7228.0000    54     7253.0000     7228.0000   801317    0.34%
  24604  9310     7228.0000    50     7253.0000     7228.0000   801318    0.34%
  24605  9311     7228.0000    37     7253.0000     7228.0000   801333    0.34%
  24606  9312     7228.0000    36     7253.0000     7228.0000   801432    0.34%
Elapsed time = 16.62 sec. (24068.55 ticks, tree = 6.19 MB, solutions = 14)
* 26194+ 9292                         7249.0000     7228.8548             0.28%
* 27467  7662      integral     0     7244.0000     7229.9935   874493    0.19%
  28191  7317     7239.9986    58     7244.0000     7230.9074   891831    0.18%
  28192  7318     7240.8357    51     7244.0000     7230.9074   891852    0.18%
  28193  7319     7240.8374    49     7244.0000     7230.9074   891853    0.18%
  28194  7320     7241.5170    42     7244.0000     7230.9074   891867    0.18%
  28195  7320     7241.5196    38     7244.0000     7230.9074   891868    0.18%
  28196  7321     7243.0000    32     7244.0000     7230.9074   891875    0.18%
  28197  7322     7243.0000    29     7244.0000     7230.9074   891894    0.18%
  28198  7323     7243.0000    27     7244.0000     7230.9074   891903    0.18%
  28199  7322        cutoff           7244.0000     7230.9074   891926    0.18%
  28200  7321        cutoff           7244.0000     7230.9074   891949    0.18%
Elapsed time = 19.17 sec. (27890.12 ticks, tree = 6.75 MB, solutions = 16)
  33726  3292        cutoff           7244.0000     7239.7860   975631    0.06%
  33727  3291        cutoff           7244.0000     7239.7869   975644    0.06%
  33728  3290        cutoff           7244.0000     7239.7881   975664    0.06%
  33729  3289        cutoff           7244.0000     7239.7894   975668    0.06%
  33730  3288    infeasible           7244.0000     7239.7931   975668    0.06%
  33731  3287        cutoff           7244.0000     7239.7955   975674    0.06%
  33732  3286        cutoff           7244.0000     7239.7992   975681    0.06%
  33733  3285        cutoff           7244.0000     7239.7993   975683    0.06%
  33734  3284        cutoff           7244.0000     7239.7996   975686    0.06%
  33735  3283        cutoff           7244.0000     7239.8045   975687    0.06%
Elapsed time = 21.67 sec. (31708.71 ticks, tree = 3.62 MB, solutions = 16)
  38646  1067        cutoff           7244.0000     7243.0000  1099651    0.01%
  38647  1066        cutoff           7244.0000     7243.0000  1099695    0.01%
  38648  1065        cutoff           7244.0000     7243.0000  1099705    0.01%
  38649  1064        cutoff           7244.0000     7243.0000  1099713    0.01%
  38650  1063        cutoff           7244.0000     7243.0000  1099723    0.01%
  38651  1064     7243.0000    36     7244.0000     7243.0000  1099832    0.01%
  38652  1063        cutoff           7244.0000     7243.0000  1099882    0.01%
  38653  1062        cutoff           7244.0000     7243.0000  1099905    0.01%
  38654  1061        cutoff           7244.0000     7243.0000  1099974    0.01%
  38655  1060        cutoff           7244.0000     7243.0000  1100082    0.01%
Elapsed time = 24.24 sec. (35535.42 ticks, tree = 1.61 MB, solutions = 16)

Cover cuts applied:  202
Mixed integer rounding cuts applied:  29
Zero-half cuts applied:  1
Lift and project cuts applied:  2
Gomory fractional cuts applied:  6

Root node processing (before b&c):
  Real time             =    0.03 sec. (21.39 ticks)
Sequential b&c:
  Real time             =   26.07 sec. (38280.16 ticks)
                          ------------
Total (root+branch&cut) =   26.10 sec. (38301.56 ticks)

Solution pool: 16 solutions saved.

MIP - Integer optimal solution:  Objective =  7.2440000000e+03
Solution time =   26.10 sec.  Iterations = 1189617  Nodes = 41033
Deterministic time = 38301.56 ticks  (1467.66 ticks/sec)


Incumbent solution written to file '/tmp/tmpC5HrX8.cplex.sol'.
